100
128
10
33
43
7
16
46
28
28
33
47
1
54
33
36
58
9
12
24
34
63
9
14
61
18
18
36
18
34
11
3
40
12
29
15
35
55
60
42
46
59
1
9
39
4
4
31
16
61
43
15
32
23
3
24
34
39
4
14
11
61
29
32
38
34
36
59
46
23
45
38
48
23
56
22
2
33
35
43
1
55
20
24
32
37
17
17
6
29
6
23
44
38
31
36
28
29
52
47
26
3